c This file was generated with the constraints_to_cnf module in this project.
c Starting from file 'constraints.txt'.
c There are 45 variables present in the constraints, and 45 total variables, given by the shape [1, 45].
c
p cnf 45 465
1 2 0
1 20 0
1 3 0
1 21 0
1 45 0
2 24 0
2 42 0
16 18 0
16 24 0
16 42 0
18 19 0
18 25 0
18 43 0
18 45 0
19 20 0
19 3 0
19 21 0
19 24 0
19 28 0
19 31 0
19 42 0
19 45 0
19 9 0
3 24 0
3 4 0
3 8 0
21 24 0
21 4 0
21 42 0
21 8 0
24 25 0
24 36 0
24 37 0
24 5 0
24 41 0
24 43 0
24 45 0
25 42 0
26 45 0
5 42 0
41 42 0
42 43 0
42 45 0
44 45 0
45 10 0
1 -11 0
1 -13 0
1 -14 0
1 -15 0
1 -17 0
1 -22 0
1 -23 0
1 -26 0
1 -29 0
1 -30 0
1 -4 0
1 -32 0
1 -33 0
1 -34 0
1 -35 0
1 -38 0
1 -39 0
1 -40 0
1 -6 0
1 -8 0
1 -10 0
2 -12 0
2 -14 0
2 -27 0
2 -34 0
2 -38 0
2 -5 0
2 -41 0
11 -14 0
11 -15 0
11 -17 0
11 -29 0
11 -34 0
11 -38 0
12 -14 0
12 -27 0
12 -34 0
12 -38 0
13 -14 0
13 -15 0
13 -17 0
13 -29 0
13 -33 0
13 -34 0
13 -35 0
13 -38 0
14 -34 0
14 -38 0
15 -14 0
15 -34 0
15 -38 0
16 -12 0
16 -14 0
16 -27 0
16 -34 0
16 -36 0
16 -37 0
16 -38 0
16 -5 0
16 -41 0
16 -43 0
17 -14 0
17 -15 0
17 -29 0
17 -34 0
17 -38 0
18 -14 0
18 -15 0
18 -17 0
18 -22 0
18 -23 0
18 -26 0
18 -28 0
18 -29 0
18 -30 0
18 -31 0
18 -33 0
18 -34 0
18 -35 0
18 -38 0
18 -40 0
18 -42 0
18 -44 0
18 -6 0
18 -7 0
19 -11 0
19 -12 0
19 -13 0
19 -14 0
19 -15 0
19 -16 0
19 -17 0
19 -22 0
19 -23 0
19 -25 0
19 -26 0
19 -27 0
19 -29 0
19 -30 0
19 -4 0
19 -32 0
19 -33 0
19 -34 0
19 -35 0
19 -36 0
19 -37 0
19 -38 0
19 -39 0
19 -40 0
19 -5 0
19 -41 0
19 -43 0
19 -44 0
19 -6 0
19 -8 0
19 -10 0
20 -12 0
20 -14 0
20 -27 0
20 -34 0
20 -38 0
3 -2 0
3 -12 0
3 -14 0
3 -16 0
3 -27 0
3 -34 0
3 -36 0
3 -37 0
3 -38 0
3 -5 0
3 -41 0
3 -43 0
3 -6 0
3 -7 0
21 -2 0
21 -12 0
21 -14 0
21 -16 0
21 -3 0
21 -23 0
21 -27 0
21 -34 0
21 -35 0
21 -36 0
21 -37 0
21 -38 0
21 -5 0
21 -41 0
21 -43 0
21 -6 0
21 -7 0
22 -14 0
22 -15 0
22 -17 0
22 -29 0
22 -34 0
22 -38 0
23 -14 0
23 -15 0
23 -29 0
23 -34 0
23 -38 0
23 -6 0
24 -1 0
24 -11 0
24 -13 0
24 -14 0
24 -15 0
24 -17 0
24 -18 0
24 -22 0
24 -23 0
24 -26 0
24 -28 0
24 -29 0
24 -30 0
24 -4 0
24 -31 0
24 -33 0
24 -34 0
24 -35 0
24 -38 0
24 -39 0
24 -40 0
24 -42 0
24 -44 0
24 -6 0
24 -7 0
24 -8 0
25 -12 0
25 -14 0
25 -16 0
25 -27 0
25 -34 0
25 -36 0
25 -37 0
25 -38 0
25 -5 0
25 -41 0
25 -43 0
26 -14 0
26 -27 0
26 -29 0
26 -32 0
26 -33 0
26 -34 0
26 -35 0
26 -38 0
26 -6 0
27 -14 0
27 -34 0
27 -38 0
28 -14 0
28 -15 0
28 -17 0
28 -23 0
28 -29 0
28 -31 0
28 -34 0
28 -38 0
28 -6 0
28 -7 0
29 -14 0
29 -34 0
29 -38 0
29 -6 0
30 -14 0
30 -15 0
30 -17 0
30 -23 0
30 -29 0
30 -33 0
30 -34 0
30 -38 0
30 -40 0
30 -6 0
4 -14 0
4 -15 0
4 -17 0
4 -22 0
4 -29 0
4 -33 0
4 -34 0
4 -38 0
4 -6 0
31 -14 0
31 -15 0
31 -34 0
31 -38 0
31 -6 0
31 -7 0
32 -14 0
32 -27 0
32 -29 0
32 -33 0
32 -34 0
32 -35 0
32 -38 0
33 -14 0
33 -29 0
33 -34 0
33 -38 0
34 -14 0
34 -27 0
34 -38 0
35 -14 0
35 -34 0
35 -38 0
36 -12 0
36 -14 0
36 -27 0
36 -34 0
36 -37 0
36 -38 0
36 -5 0
36 -41 0
37 -12 0
37 -14 0
37 -16 0
37 -27 0
37 -34 0
37 -38 0
37 -5 0
37 -41 0
37 -43 0
38 -14 0
38 -34 0
39 -14 0
39 -15 0
39 -17 0
39 -23 0
39 -29 0
39 -33 0
39 -34 0
39 -38 0
39 -6 0
40 -14 0
40 -29 0
40 -34 0
40 -38 0
40 -6 0
5 -12 0
5 -14 0
5 -27 0
5 -34 0
5 -37 0
5 -38 0
5 -41 0
41 -12 0
41 -14 0
41 -16 0
41 -27 0
41 -34 0
41 -36 0
41 -37 0
41 -38 0
41 -5 0
41 -43 0
42 -11 0
42 -13 0
42 -14 0
42 -15 0
42 -17 0
42 -18 0
42 -22 0
42 -23 0
42 -24 0
42 -26 0
42 -28 0
42 -29 0
42 -30 0
42 -31 0
42 -33 0
42 -34 0
42 -35 0
42 -38 0
42 -40 0
42 -44 0
42 -6 0
42 -7 0
42 -8 0
43 -12 0
43 -14 0
43 -16 0
43 -27 0
43 -34 0
43 -36 0
43 -37 0
43 -38 0
43 -5 0
43 -41 0
44 -14 0
44 -27 0
44 -29 0
44 -33 0
44 -34 0
44 -35 0
44 -38 0
44 -6 0
45 -11 0
45 -12 0
45 -14 0
45 -15 0
45 -16 0
45 -17 0
45 -22 0
45 -27 0
45 -29 0
45 -31 0
45 -34 0
45 -37 0
45 -38 0
45 -5 0
45 -41 0
45 -43 0
45 -6 0
45 -7 0
6 -14 0
6 -34 0
6 -38 0
7 -14 0
7 -34 0
7 -38 0
8 -11 0
8 -13 0
8 -14 0
8 -15 0
8 -17 0
8 -22 0
8 -29 0
8 -33 0
8 -34 0
8 -35 0
8 -38 0
8 -6 0
9 -11 0
9 -14 0
9 -15 0
9 -17 0
9 -22 0
9 -23 0
9 -28 0
9 -29 0
9 -31 0
9 -33 0
9 -34 0
9 -38 0
9 -6 0
9 -7 0
10 -14 0
10 -26 0
10 -27 0
10 -29 0
10 -32 0
10 -33 0
10 -34 0
10 -35 0
10 -38 0
10 -6 0

